
  32    4
  10   10   10   10

   0   0   0   0   0  14 2 3 4 5 6 7 10 13 14 17 18 19 20 31 
   7   0   1   1   1  10 30 28 27 26 25 16 15 12 11 9 
   8   1   8   0   3   7 27 26 22 16 15 11 8 
   4   7   0   3   5   4 26 15 12 8 
   4   3   3   5   0   5 29 28 22 21 8 
   4   3   6   3   0   6 27 26 24 23 22 15 
   2   2   5   0   2   3 27 25 11 
   1   3   4   7   0   3 25 24 23 
   9   7   3   2   0   3 29 22 21 
   1   6   0   6   4   2 23 15 
   2   0   1   3   5   2 24 21 
   8   1   4   0   1   2 23 22 
   7   4   5   0   5   2 28 27 
   9   0   4   4   3   2 25 23 
   7   0   3   5   4   1 21 
  10   0   6   3   6   1 21 
   7   6   5   6   0   1 26 
   8   0   4   2   4   1 24 
   4   6   6   4   0   1 22 
   1   3   0   3   4   1 22 
  10   0   4   5   2   1 32
   6   0   2   4   3   1 32
   5   3   4   5   0   1 32
  10   6   0   1   9   1 32
   1   0   4   5   4   1 32
   8   4   0   6   3   1 32
   4   5   2   0   4   1 32
   4   0   6   6   3   1 32
   7   2   2   3   0   1 32
   5   4   4   0   6   1 32
   8   0   4   4   7   1 32
   0   0   0   0   0   0 
